p edge 77 885
e 1 2
e 1 3
e 1 8
e 1 9
e 1 11
e 1 16
e 1 18
e 1 20
e 1 22
e 1 24
e 1 30
e 1 38
e 1 39
e 1 41
e 1 43
e 1 44
e 1 46
e 1 52
e 1 55
e 1 56
e 1 59
e 1 64
e 1 66
e 1 69
e 1 77
e 2 4
e 2 10
e 2 11
e 2 17
e 2 20
e 2 24
e 2 31
e 2 33
e 2 38
e 2 55
e 2 58
e 2 59
e 2 60
e 2 61
e 2 62
e 2 65
e 2 67
e 2 72
e 2 73
e 2 75
e 3 5
e 3 6
e 3 8
e 3 9
e 3 29
e 3 36
e 3 44
e 3 52
e 3 53
e 3 57
e 4 8
e 4 10
e 4 12
e 4 16
e 4 18
e 4 19
e 4 23
e 4 24
e 4 29
e 4 32
e 4 35
e 4 36
e 4 45
e 4 50
e 4 57
e 4 58
e 4 63
e 4 66
e 4 71
e 4 77
e 5 9
e 5 13
e 5 17
e 5 18
e 5 22
e 5 27
e 5 28
e 5 31
e 5 34
e 5 37
e 5 38
e 5 39
e 5 40
e 5 46
e 5 47
e 5 48
e 5 55
e 5 57
e 5 58
e 5 59
e 5 61
e 5 63
e 5 65
e 5 66
e 5 69
e 5 76
e 5 77
e 6 9
e 6 10
e 6 19
e 6 20
e 6 25
e 6 27
e 6 39
e 6 44
e 6 46
e 6 49
e 6 51
e 6 54
e 6 55
e 6 56
e 6 62
e 6 65
e 6 67
e 6 68
e 6 69
e 7 11
e 7 29
e 7 32
e 7 42
e 7 48
e 7 53
e 7 55
e 7 58
e 7 60
e 7 68
e 7 70
e 7 72
e 7 77
e 8 9
e 8 13
e 8 17
e 8 20
e 8 21
e 8 22
e 8 23
e 8 28
e 8 32
e 8 35
e 8 36
e 8 42
e 8 43
e 8 44
e 8 46
e 8 49
e 8 54
e 8 55
e 8 63
e 8 64
e 8 70
e 8 73
e 8 75
e 8 77
e 9 12
e 9 23
e 9 24
e 9 25
e 9 34
e 9 43
e 9 44
e 9 46
e 9 47
e 9 50
e 9 59
e 9 63
e 9 66
e 9 71
e 9 77
e 10 21
e 10 24
e 10 25
e 10 27
e 10 30
e 10 37
e 10 42
e 10 47
e 10 49
e 10 52
e 10 54
e 10 58
e 10 60
e 10 65
e 10 68
e 10 76
e 10 77
e 11 12
e 11 13
e 11 27
e 11 28
e 11 29
e 11 31
e 11 32
e 11 34
e 11 42
e 11 46
e 11 50
e 11 53
e 11 54
e 11 57
e 11 60
e 11 74
e 12 15
e 12 17
e 12 18
e 12 22
e 12 26
e 12 30
e 12 32
e 12 33
e 12 37
e 12 40
e 12 41
e 12 48
e 12 49
e 12 53
e 12 54
e 12 56
e 12 58
e 12 61
e 12 67
e 12 71
e 12 76
e 12 77
e 13 14
e 13 25
e 13 26
e 13 33
e 13 38
e 13 41
e 13 54
e 13 56
e 13 58
e 13 63
e 13 66
e 13 70
e 13 73
e 14 16
e 14 18
e 14 20
e 14 23
e 14 27
e 14 29
e 14 30
e 14 36
e 14 41
e 14 43
e 14 45
e 14 52
e 14 55
e 14 57
e 14 63
e 14 65
e 14 67
e 14 68
e 14 69
e 14 70
e 14 73
e 14 77
e 15 17
e 15 19
e 15 21
e 15 28
e 15 29
e 15 32
e 15 33
e 15 42
e 15 46
e 15 48
e 15 49
e 15 53
e 15 56
e 15 62
e 15 63
e 15 65
e 15 66
e 15 70
e 15 71
e 15 72
e 15 74
e 15 77
e 16 17
e 16 21
e 16 22
e 16 23
e 16 24
e 16 25
e 16 28
e 16 29
e 16 32
e 16 39
e 16 44
e 16 56
e 16 60
e 16 62
e 16 65
e 16 66
e 16 68
e 16 69
e 16 73
e 16 76
e 17 18
e 17 24
e 17 25
e 17 30
e 17 35
e 17 36
e 17 37
e 17 39
e 17 43
e 17 44
e 17 46
e 17 48
e 17 49
e 17 50
e 17 51
e 17 53
e 17 59
e 17 60
e 17 61
e 17 66
e 17 76
e 18 19
e 18 21
e 18 22
e 18 24
e 18 26
e 18 34
e 18 36
e 18 43
e 18 46
e 18 50
e 18 53
e 18 54
e 18 55
e 18 59
e 18 60
e 18 64
e 18 65
e 18 68
e 18 69
e 18 72
e 18 75
e 18 76
e 19 21
e 19 23
e 19 24
e 19 25
e 19 26
e 19 28
e 19 30
e 19 31
e 19 33
e 19 34
e 19 38
e 19 39
e 19 40
e 19 41
e 19 42
e 19 47
e 19 54
e 19 55
e 19 60
e 19 66
e 19 69
e 19 72
e 19 75
e 20 23
e 20 31
e 20 32
e 20 38
e 20 45
e 20 48
e 20 50
e 20 51
e 20 59
e 20 62
e 20 63
e 20 65
e 20 66
e 20 73
e 20 77
e 21 24
e 21 27
e 21 29
e 21 33
e 21 34
e 21 35
e 21 39
e 21 41
e 21 42
e 21 45
e 21 47
e 21 48
e 21 50
e 21 59
e 21 61
e 21 62
e 21 63
e 21 68
e 21 69
e 21 71
e 21 73
e 21 74
e 21 75
e 21 77
e 22 23
e 22 25
e 22 29
e 22 30
e 22 33
e 22 34
e 22 35
e 22 36
e 22 40
e 22 41
e 22 43
e 22 47
e 22 48
e 22 50
e 22 51
e 22 53
e 22 55
e 22 68
e 22 74
e 23 26
e 23 33
e 23 34
e 23 38
e 23 40
e 23 44
e 23 45
e 23 46
e 23 50
e 23 51
e 23 56
e 23 58
e 23 59
e 23 60
e 23 61
e 23 70
e 23 73
e 23 74
e 23 75
e 24 25
e 24 28
e 24 30
e 24 33
e 24 36
e 24 37
e 24 40
e 24 41
e 24 44
e 24 45
e 24 48
e 24 54
e 24 55
e 24 57
e 24 60
e 24 67
e 24 74
e 24 77
e 25 29
e 25 33
e 25 40
e 25 41
e 25 46
e 25 48
e 25 50
e 25 52
e 25 53
e 25 55
e 25 60
e 25 63
e 25 64
e 25 66
e 25 69
e 25 71
e 25 75
e 25 77
e 26 29
e 26 31
e 26 32
e 26 35
e 26 36
e 26 37
e 26 40
e 26 41
e 26 44
e 26 46
e 26 47
e 26 49
e 26 51
e 26 52
e 26 55
e 26 56
e 26 70
e 26 73
e 27 29
e 27 38
e 27 39
e 27 40
e 27 46
e 27 48
e 27 54
e 27 56
e 27 61
e 27 65
e 27 68
e 27 69
e 27 70
e 28 31
e 28 33
e 28 34
e 28 36
e 28 37
e 28 44
e 28 47
e 28 50
e 28 53
e 28 56
e 28 61
e 28 62
e 28 63
e 28 67
e 28 72
e 28 73
e 28 74
e 28 75
e 28 76
e 29 30
e 29 32
e 29 41
e 29 42
e 29 43
e 29 52
e 29 55
e 29 58
e 29 61
e 29 62
e 29 63
e 29 64
e 29 65
e 29 74
e 29 76
e 29 77
e 30 34
e 30 35
e 30 36
e 30 37
e 30 38
e 30 46
e 30 52
e 30 53
e 30 58
e 30 61
e 30 64
e 30 66
e 30 77
e 31 32
e 31 36
e 31 37
e 31 40
e 31 46
e 31 51
e 31 62
e 31 65
e 31 71
e 31 76
e 31 77
e 32 34
e 32 35
e 32 36
e 32 47
e 32 60
e 32 61
e 32 64
e 32 66
e 32 67
e 32 69
e 32 74
e 33 38
e 33 39
e 33 40
e 33 44
e 33 49
e 33 51
e 33 54
e 33 55
e 33 58
e 33 60
e 33 62
e 33 64
e 33 65
e 33 72
e 33 76
e 34 45
e 34 49
e 34 50
e 34 51
e 34 56
e 34 59
e 34 64
e 34 67
e 34 74
e 35 36
e 35 46
e 35 52
e 35 54
e 35 58
e 35 64
e 35 67
e 35 68
e 35 72
e 35 73
e 35 75
e 35 77
e 36 40
e 36 45
e 36 51
e 36 57
e 36 63
e 36 71
e 36 74
e 36 76
e 37 43
e 37 45
e 37 48
e 37 53
e 37 55
e 37 57
e 37 61
e 37 67
e 37 68
e 37 73
e 37 74
e 37 75
e 38 40
e 38 42
e 38 43
e 38 44
e 38 45
e 38 46
e 38 50
e 38 52
e 38 55
e 38 59
e 38 60
e 38 62
e 38 64
e 38 65
e 38 68
e 38 69
e 38 71
e 38 72
e 38 74
e 38 76
e 39 42
e 39 45
e 39 50
e 39 53
e 39 61
e 39 62
e 39 65
e 39 67
e 39 73
e 40 42
e 40 47
e 40 48
e 40 49
e 40 54
e 40 59
e 40 61
e 40 62
e 40 69
e 40 74
e 40 77
e 41 42
e 41 47
e 41 59
e 41 65
e 41 68
e 41 69
e 42 49
e 42 51
e 42 52
e 42 56
e 42 57
e 42 61
e 42 62
e 42 72
e 42 73
e 42 74
e 42 75
e 43 48
e 43 49
e 43 52
e 43 54
e 43 59
e 43 61
e 43 63
e 43 64
e 43 72
e 43 77
e 44 50
e 44 54
e 44 55
e 44 62
e 44 63
e 44 64
e 45 47
e 45 48
e 45 49
e 45 51
e 45 52
e 45 55
e 45 59
e 45 60
e 45 62
e 45 64
e 45 67
e 45 68
e 45 72
e 45 74
e 46 51
e 46 59
e 46 62
e 46 65
e 46 67
e 46 68
e 46 75
e 47 56
e 47 65
e 47 72
e 47 74
e 47 75
e 48 56
e 48 58
e 48 60
e 48 62
e 48 66
e 48 67
e 48 68
e 48 70
e 48 72
e 48 76
e 49 50
e 49 52
e 49 54
e 49 56
e 49 61
e 49 68
e 49 69
e 49 70
e 49 71
e 50 58
e 50 63
e 50 64
e 50 68
e 50 71
e 51 53
e 51 54
e 51 57
e 51 58
e 51 59
e 51 60
e 51 61
e 51 63
e 51 65
e 51 70
e 51 77
e 52 54
e 52 59
e 52 60
e 52 61
e 52 63
e 52 64
e 52 66
e 52 68
e 52 69
e 52 71
e 52 74
e 52 76
e 53 54
e 53 58
e 53 59
e 53 60
e 53 61
e 53 63
e 53 65
e 53 67
e 53 69
e 53 72
e 53 75
e 54 57
e 54 58
e 54 60
e 54 61
e 54 66
e 54 69
e 54 70
e 54 77
e 55 58
e 55 59
e 55 67
e 55 68
e 55 72
e 55 76
e 56 65
e 56 66
e 56 70
e 56 71
e 56 72
e 56 74
e 56 76
e 56 77
e 57 58
e 57 59
e 57 64
e 57 66
e 57 67
e 57 69
e 57 73
e 57 75
e 58 62
e 58 63
e 58 65
e 58 66
e 58 73
e 59 61
e 59 64
e 59 65
e 59 67
e 59 71
e 59 72
e 59 76
e 60 62
e 60 76
e 61 62
e 61 63
e 61 66
e 61 68
e 61 69
e 61 77
e 62 66
e 62 70
e 63 64
e 63 66
e 63 67
e 63 68
e 63 71
e 63 73
e 64 68
e 64 70
e 64 72
e 65 67
e 65 71
e 65 73
e 65 75
e 66 68
e 66 70
e 66 72
e 66 74
e 67 73
e 67 75
e 67 76
e 68 69
e 68 70
e 68 74
e 69 70
e 69 74
e 70 72
e 70 73
e 71 72
e 71 73
e 71 76
e 72 73
e 72 74
e 73 75
e 74 76
e 74 77
